/*********************************************
 * OPL 22.1.0.0 Data
 * Author: naruto
 * Creation Date: Dec 6, 2022 at 7:51:13 AM
 *********************************************/
//DATA
unitcostPTC = [[190,210],[185,205]];
unitcostCTR = [[175,180,165],[235,130,145]];
supply = [150,180];
demand = [38,145,120];